sat_in/task2/06.cnf
p cnf 21 141
1 2 3 4 5 6 7 0
8 9 10 11 12 13 14 0
15 16 17 18 19 20 21 0
-1 -2 0
-1 -9 0
-1 -16 0
-8 -2 0
-8 -9 0
-8 -16 0
-15 -2 0
-15 -9 0
-15 -16 0
-1 -4 0
-1 -11 0
-1 -18 0
-8 -4 0
-8 -11 0
-8 -18 0
-15 -4 0
-15 -11 0
-15 -18 0
-2 -3 0
-2 -10 0
-2 -17 0
-9 -3 0
-9 -10 0
-9 -17 0
-16 -3 0
-16 -10 0
-16 -17 0
-2 -6 0
-2 -13 0
-2 -20 0
-9 -6 0
-9 -13 0
-9 -20 0
-16 -6 0
-16 -13 0
-16 -20 0
-3 -4 0
-3 -11 0
-3 -18 0
-10 -4 0
-10 -11 0
-10 -18 0
-17 -4 0
-17 -11 0
-17 -18 0
-3 -7 0
-3 -14 0
-3 -21 0
-10 -7 0
-10 -14 0
-10 -21 0
-17 -7 0
-17 -14 0
-17 -21 0
-4 -7 0
-4 -14 0
-4 -21 0
-11 -7 0
-11 -14 0
-11 -21 0
-18 -7 0
-18 -14 0
-18 -21 0
-5 -6 0
-5 -13 0
-5 -20 0
-12 -6 0
-12 -13 0
-12 -20 0
-19 -6 0
-19 -13 0
-19 -20 0
-5 -7 0
-5 -14 0
-5 -21 0
-12 -7 0
-12 -14 0
-12 -21 0
-19 -7 0
-19 -14 0
-19 -21 0
-1 -3 0
-1 -5 0
-1 -6 0
-1 -7 0
-2 -4 0
-2 -5 0
-2 -7 0
-3 -5 0
-3 -6 0
-4 -5 0
-4 -6 0
-6 -7 0
-8 -10 0
-8 -12 0
-8 -13 0
-8 -14 0
-9 -11 0
-9 -12 0
-9 -14 0
-10 -12 0
-10 -13 0
-11 -12 0
-11 -13 0
-13 -14 0
-15 -17 0
-15 -19 0
-15 -20 0
-15 -21 0
-16 -18 0
-16 -19 0
-16 -21 0
-17 -19 0
-17 -20 0
-18 -19 0
-18 -20 0
-20 -21 0
-1 -8 0
-1 -15 0
-8 -15 0
-2 -9 0
-2 -16 0
-9 -16 0
-3 -10 0
-3 -17 0
-10 -17 0
-4 -11 0
-4 -18 0
-11 -18 0
-5 -12 0
-5 -19 0
-12 -19 0
-6 -13 0
-6 -20 0
-13 -20 0
-7 -14 0
-7 -21 0
-14 -21 0
