out/task2/06.out
True
5 3 1 